(set-info :smt-lib-version 2.6)
(set-logic UFNIRA)
(set-info :source |
Generated by: Geoff Sutcliffe
Generated on: 2026-03-11
Generator: TPTPWorld
Application: Benchmarking automated theorem provers
Time limit: 120.0

These benchmarks are translations from the TPTP Library (Thousands of
Problems for Theorem Provers), see http://www.cs.miami.edu/~tptp/

The TPTP is maintained by Geoff Sutcliffe, and he contributed this
selection of benchmarks to SMT-LIB.  They were exported from the
v9.2.1 realease of TPTP.
|)
(set-info :category "industrial")
(set-info :status unknown)
; SZS status Success
(declare-sort $$unsorted 0)
(declare-sort tptp.uni 0)
(declare-sort tptp.ty 0)
(declare-fun tptp.sort1 (tptp.ty tptp.uni) Bool)
(declare-fun tptp.witness1 (tptp.ty) tptp.uni)
(assert (forall ((A tptp.ty)) (tptp.sort1 A (tptp.witness1 A))))
(declare-fun tptp.int () tptp.ty)
(declare-fun tptp.real () tptp.ty)
(declare-sort tptp.bool1 0)
(declare-fun tptp.bool () tptp.ty)
(declare-fun tptp.true1 () tptp.bool1)
(declare-fun tptp.false1 () tptp.bool1)
(declare-fun tptp.match_bool1 (tptp.ty tptp.bool1 tptp.uni tptp.uni) tptp.uni)
(assert (forall ((A tptp.ty) (X tptp.bool1) (X1 tptp.uni) (X2 tptp.uni)) (tptp.sort1 A (tptp.match_bool1 A X X1 X2))))
(assert (forall ((A tptp.ty) (Z tptp.uni) (Z1 tptp.uni)) (=> (tptp.sort1 A Z) (= (tptp.match_bool1 A tptp.true1 Z Z1) Z))))
(assert (forall ((A tptp.ty) (Z tptp.uni) (Z1 tptp.uni)) (=> (tptp.sort1 A Z1) (= (tptp.match_bool1 A tptp.false1 Z Z1) Z1))))
(assert (not (= tptp.true1 tptp.false1)))
(assert (forall ((U tptp.bool1)) (or (= U tptp.true1) (= U tptp.false1))))
(declare-sort tptp.tuple02 0)
(declare-fun tptp.tuple0 () tptp.ty)
(declare-fun tptp.tuple03 () tptp.tuple02)
(assert (forall ((U tptp.tuple02)) (= U tptp.tuple03)))
(declare-fun tptp.qtmark () tptp.ty)
(assert (forall ((X Int) (Y Int) (Z Int)) (=> (<= X Y) (=> (<= 0 Z) (<= (* X Z) (* Y Z))))))
(declare-fun tptp.abs1 (Int) Int)
(assert (forall ((X Int)) (let ((_let_1 (tptp.abs1 X))) (let ((_let_2 (<= 0 X))) (and (=> _let_2 (= _let_1 X)) (=> (not _let_2) (= _let_1 (- X))))))))
(assert (forall ((X Int) (Y Int)) (= (<= (tptp.abs1 X) Y) (and (<= (- Y) X) (<= X Y)))))
(assert (forall ((X Int)) (<= 0 (tptp.abs1 X))))
(declare-fun tptp.div2 (Int Int) Int)
(declare-fun tptp.mod2 (Int Int) Int)
(assert (forall ((X Int) (Y Int)) (=> (not (= Y 0)) (= X (+ (* Y (tptp.div2 X Y)) (tptp.mod2 X Y))))))
(assert (forall ((X Int) (Y Int)) (let ((_let_1 (tptp.div2 X Y))) (=> (and (<= 0 X) (< 0 Y)) (and (<= 0 _let_1) (<= _let_1 X))))))
(assert (forall ((X Int) (Y Int)) (let ((_let_1 (tptp.abs1 Y))) (let ((_let_2 (tptp.mod2 X Y))) (=> (not (= Y 0)) (and (< (- _let_1) _let_2) (< _let_2 _let_1)))))))
(assert (forall ((X Int) (Y Int)) (=> (and (<= 0 X) (< 0 Y)) (<= 0 (tptp.div2 X Y)))))
(assert (forall ((X Int) (Y Int)) (=> (and (<= X 0) (< 0 Y)) (<= (tptp.div2 X Y) 0))))
(assert (forall ((X Int) (Y Int)) (=> (and (<= 0 X) (not (= Y 0))) (<= 0 (tptp.mod2 X Y)))))
(assert (forall ((X Int) (Y Int)) (=> (and (<= X 0) (not (= Y 0))) (<= (tptp.mod2 X Y) 0))))
(assert (forall ((X Int) (Y Int)) (=> (not (= Y 0)) (<= (tptp.abs1 (* (tptp.div2 X Y) Y)) (tptp.abs1 X)))))
(assert (forall ((X Int)) (= (tptp.div2 X 1) X)))
(assert (forall ((X Int)) (= (tptp.mod2 X 1) 0)))
(assert (forall ((X Int) (Y Int)) (=> (and (<= 0 X) (< X Y)) (= (tptp.div2 X Y) 0))))
(assert (forall ((X Int) (Y Int)) (=> (and (<= 0 X) (< X Y)) (= (tptp.mod2 X Y) X))))
(assert (forall ((X Int) (Y Int) (Z Int)) (=> (and (< 0 X) (<= 0 Y) (<= 0 Z)) (= (tptp.div2 (+ (* X Y) Z) X) (+ Y (tptp.div2 Z X))))))
(assert (forall ((X Int) (Y Int) (Z Int)) (=> (and (< 0 X) (<= 0 Y) (<= 0 Z)) (= (tptp.mod2 (+ (* X Y) Z) X) (tptp.mod2 Z X)))))
(declare-fun tptp.lt_nat1 (Int Int) Bool)
(assert (forall ((X Int) (Y Int)) (= (tptp.lt_nat1 X Y) (and (<= 0 Y) (< X Y)))))
(declare-fun tptp.tuple2 (tptp.ty tptp.ty) tptp.ty)
(declare-fun tptp.tuple21 (tptp.ty tptp.ty tptp.uni tptp.uni) tptp.uni)
(assert (forall ((A tptp.ty) (A1 tptp.ty) (X tptp.uni) (X1 tptp.uni)) (tptp.sort1 (tptp.tuple2 A1 A) (tptp.tuple21 A1 A X X1))))
(declare-fun tptp.tuple2_proj_11 (tptp.ty tptp.ty tptp.uni) tptp.uni)
(assert (forall ((A tptp.ty) (A1 tptp.ty) (X tptp.uni)) (tptp.sort1 A1 (tptp.tuple2_proj_11 A1 A X))))
(assert (forall ((A tptp.ty) (A1 tptp.ty) (U tptp.uni) (U1 tptp.uni)) (=> (tptp.sort1 A1 U) (= (tptp.tuple2_proj_11 A1 A (tptp.tuple21 A1 A U U1)) U))))
(declare-fun tptp.tuple2_proj_21 (tptp.ty tptp.ty tptp.uni) tptp.uni)
(assert (forall ((A tptp.ty) (A1 tptp.ty) (X tptp.uni)) (tptp.sort1 A (tptp.tuple2_proj_21 A1 A X))))
(assert (forall ((A tptp.ty) (A1 tptp.ty) (U tptp.uni) (U1 tptp.uni)) (=> (tptp.sort1 A U1) (= (tptp.tuple2_proj_21 A1 A (tptp.tuple21 A1 A U U1)) U1))))
(assert (forall ((A tptp.ty) (A1 tptp.ty) (U tptp.uni)) (=> (tptp.sort1 (tptp.tuple2 A1 A) U) (= U (tptp.tuple21 A1 A (tptp.tuple2_proj_11 A1 A U) (tptp.tuple2_proj_21 A1 A U))))))
(declare-sort tptp.lpintcm_intrp 0)
(declare-fun tptp.lex1 (tptp.lpintcm_intrp tptp.lpintcm_intrp) Bool)
(declare-fun tptp.t2tb (tptp.lpintcm_intrp) tptp.uni)
(assert (forall ((X tptp.lpintcm_intrp)) (tptp.sort1 (tptp.tuple2 tptp.int tptp.int) (tptp.t2tb X))))
(declare-fun tptp.tb2t (tptp.uni) tptp.lpintcm_intrp)
(assert (forall ((I tptp.lpintcm_intrp)) (= (tptp.tb2t (tptp.t2tb I)) I)))
(assert (forall ((J tptp.uni)) (= (tptp.t2tb (tptp.tb2t J)) J)))
(declare-fun tptp.t2tb1 (Int) tptp.uni)
(assert (forall ((X Int)) (tptp.sort1 tptp.int (tptp.t2tb1 X))))
(declare-fun tptp.tb2t1 (tptp.uni) Int)
(assert (forall ((I Int)) (= (tptp.tb2t1 (tptp.t2tb1 I)) I)))
(assert (forall ((J tptp.uni)) (= (tptp.t2tb1 (tptp.tb2t1 J)) J)))
(assert (forall ((X1 Int) (X2 Int) (Y1 Int) (Y2 Int)) (=> (tptp.lt_nat1 X1 X2) (tptp.lex1 (tptp.tb2t (tptp.tuple21 tptp.int tptp.int (tptp.t2tb1 X1) (tptp.t2tb1 Y1))) (tptp.tb2t (tptp.tuple21 tptp.int tptp.int (tptp.t2tb1 X2) (tptp.t2tb1 Y2)))))))
(assert (forall ((X Int) (Y1 Int) (Y2 Int)) (let ((_let_1 (tptp.t2tb1 X))) (=> (tptp.lt_nat1 Y1 Y2) (tptp.lex1 (tptp.tb2t (tptp.tuple21 tptp.int tptp.int _let_1 (tptp.t2tb1 Y1))) (tptp.tb2t (tptp.tuple21 tptp.int tptp.int _let_1 (tptp.t2tb1 Y2))))))))
(assert (forall ((Z tptp.lpintcm_intrp) (Z1 tptp.lpintcm_intrp)) (=> (tptp.lex1 Z Z1) (or (exists ((X1 Int) (X2 Int) (Y1 Int) (Y2 Int)) (and (tptp.lt_nat1 X1 X2) (= Z (tptp.tb2t (tptp.tuple21 tptp.int tptp.int (tptp.t2tb1 X1) (tptp.t2tb1 Y1)))) (= Z1 (tptp.tb2t (tptp.tuple21 tptp.int tptp.int (tptp.t2tb1 X2) (tptp.t2tb1 Y2)))))) (exists ((X Int) (Y1 Int) (Y2 Int)) (let ((_let_1 (tptp.t2tb1 X))) (and (tptp.lt_nat1 Y1 Y2) (= Z (tptp.tb2t (tptp.tuple21 tptp.int tptp.int _let_1 (tptp.t2tb1 Y1)))) (= Z1 (tptp.tb2t (tptp.tuple21 tptp.int tptp.int _let_1 (tptp.t2tb1 Y2)))))))))))
(declare-fun tptp.even1 (Int) Bool)
(assert (forall ((N Int)) (= (tptp.even1 N) (exists ((K Int)) (= N (* 2 K))))))
(declare-fun tptp.odd1 (Int) Bool)
(assert (forall ((N Int)) (= (tptp.odd1 N) (exists ((K Int)) (= N (+ (* 2 K) 1))))))
(assert (forall ((N Int)) (or (tptp.even1 N) (tptp.odd1 N))))
(assert (forall ((N Int)) (=> (tptp.even1 N) (not (tptp.odd1 N)))))
(assert (forall ((N Int)) (=> (tptp.odd1 N) (not (tptp.even1 N)))))
(assert (forall ((N Int)) (=> (tptp.even1 N) (tptp.odd1 (+ N 1)))))
(assert (forall ((N Int)) (=> (tptp.odd1 N) (tptp.even1 (+ N 1)))))
(assert (forall ((N Int)) (=> (tptp.even1 N) (tptp.even1 (+ N 2)))))
(assert (forall ((N Int)) (=> (tptp.odd1 N) (tptp.odd1 (+ N 2)))))
(assert (forall ((K Int)) (tptp.even1 (* 2 K))))
(assert (forall ((K Int)) (tptp.odd1 (+ (* 2 K) 1))))
(declare-fun tptp.divides1 (Int Int) Bool)
(assert (forall ((D Int) (N Int)) (= (tptp.divides1 D N) (exists ((Q Int)) (= N (* Q D))))))
(assert (forall ((N Int)) (tptp.divides1 N N)))
(assert (forall ((N Int)) (tptp.divides1 1 N)))
(assert (forall ((N Int)) (tptp.divides1 N 0)))
(assert (forall ((A Int) (B Int) (C Int)) (=> (tptp.divides1 A B) (tptp.divides1 (* C A) (* C B)))))
(assert (forall ((A Int) (B Int) (C Int)) (=> (tptp.divides1 A B) (tptp.divides1 (* A C) (* B C)))))
(assert (forall ((A Int) (B Int)) (=> (tptp.divides1 A B) (tptp.divides1 A (- B)))))
(assert (forall ((A Int) (B Int)) (=> (tptp.divides1 A B) (tptp.divides1 (- A) B))))
(assert (forall ((A Int) (B Int)) (=> (tptp.divides1 (- A) B) (tptp.divides1 A B))))
(assert (forall ((A Int) (B Int)) (=> (tptp.divides1 A (- B)) (tptp.divides1 A B))))
(assert (forall ((A Int) (B Int) (C Int)) (=> (tptp.divides1 A B) (=> (tptp.divides1 A C) (tptp.divides1 A (+ B C))))))
(assert (forall ((A Int) (B Int) (C Int)) (=> (tptp.divides1 A B) (=> (tptp.divides1 A C) (tptp.divides1 A (- B C))))))
(assert (forall ((A Int) (B Int) (C Int)) (=> (tptp.divides1 A B) (tptp.divides1 A (* C B)))))
(assert (forall ((A Int) (B Int) (C Int)) (=> (tptp.divides1 A B) (tptp.divides1 A (* B C)))))
(assert (forall ((A Int) (B Int)) (tptp.divides1 A (* B A))))
(assert (forall ((A Int) (B Int)) (tptp.divides1 A (* A B))))
(assert (forall ((N Int)) (=> (tptp.divides1 N 1) (or (= N 1) (= N (- 1))))))
(assert (forall ((A Int) (B Int)) (=> (tptp.divides1 A B) (=> (tptp.divides1 B A) (or (= A B) (= A (- B)))))))
(assert (forall ((A Int) (B Int) (C Int)) (=> (tptp.divides1 A B) (=> (tptp.divides1 B C) (tptp.divides1 A C)))))
(assert (forall ((A Int) (B Int)) (=> (tptp.divides1 A B) (=> (not (= B 0)) (<= (tptp.abs1 A) (tptp.abs1 B))))))
(assert (forall ((X Int) (Y Int) (Z Int)) (let ((_let_1 (to_real X))) (let ((_let_2 (/ (to_real Z) _let_1))) (let ((_let_3 (>= _let_1 0.0))) (let ((_let_4 (/ (to_real (+ (* X Y) Z)) _let_1))) (=> (< 0 X) (= (ite _let_3 (to_int _let_4) (- (to_int (- _let_4)))) (+ Y (ite _let_3 (to_int _let_2) (- (to_int (- _let_2)))))))))))))
(assert (forall ((X Int) (Y Int) (Z Int)) (let ((_let_1 (to_real X))) (let ((_let_2 (to_real Z))) (let ((_let_3 (/ _let_2 _let_1))) (let ((_let_4 (>= _let_1 0.0))) (let ((_let_5 (to_real (+ (* X Y) Z)))) (let ((_let_6 (/ _let_5 _let_1))) (=> (< 0 X) (= (to_int (- _let_5 (* (ite _let_4 (to_int _let_6) (- (to_int (- _let_6)))) _let_1))) (to_int (- _let_2 (* (ite _let_4 (to_int _let_3) (- (to_int (- _let_3)))) _let_1)))))))))))))
(assert (forall ((A Int) (B Int)) (let ((_let_1 (to_real B))) (let ((_let_2 (to_real A))) (let ((_let_3 (/ _let_2 _let_1))) (=> (not (= B 0)) (=> (= (to_int (- _let_2 (* (ite (>= _let_1 0.0) (to_int _let_3) (- (to_int (- _let_3)))) _let_1))) 0) (tptp.divides1 B A))))))))
(assert (forall ((A Int) (B Int)) (let ((_let_1 (to_real B))) (let ((_let_2 (to_real A))) (let ((_let_3 (/ _let_2 _let_1))) (=> (not (= B 0)) (=> (tptp.divides1 B A) (= (to_int (- _let_2 (* (ite (>= _let_1 0.0) (to_int _let_3) (- (to_int (- _let_3)))) _let_1))) 0))))))))
(assert (forall ((A Int) (B Int)) (=> (not (= B 0)) (=> (= (tptp.mod2 A B) 0) (tptp.divides1 B A)))))
(assert (forall ((A Int) (B Int)) (=> (not (= B 0)) (=> (tptp.divides1 B A) (= (tptp.mod2 A B) 0)))))
(assert (forall ((A Int)) (= (tptp.even1 A) (tptp.divides1 2 A))))
(assert (forall ((A Int)) (= (tptp.odd1 A) (not (tptp.divides1 2 A)))))
(declare-fun tptp.prime1 (Int) Bool)
(assert (forall ((P Int)) (= (tptp.prime1 P) (and (<= 2 P) (forall ((N Int)) (=> (and (< 1 N) (< N P)) (not (tptp.divides1 N P))))))))
(assert (not (tptp.prime1 1)))
(assert (tptp.prime1 2))
(assert (tptp.prime1 3))
(assert (forall ((P Int)) (=> (tptp.prime1 P) (forall ((D Int)) (=> (tptp.divides1 D P) (or (= D 1) (= D (- 1)) (= D P) (= D (- P))))))))
(assert (forall ((P Int)) (=> (<= 2 P) (=> (forall ((D Int)) (let ((_let_1 (* D D))) (=> (<= 2 D) (=> (tptp.prime1 D) (=> (and (< 1 _let_1) (<= _let_1 P)) (not (tptp.divides1 D P))))))) (tptp.prime1 P)))))
(assert (forall ((P Int)) (=> (tptp.prime1 P) (=> (tptp.even1 P) (= P 2)))))
(assert (forall ((P Int)) (=> (tptp.prime1 P) (=> (<= 3 P) (tptp.odd1 P)))))
(declare-fun tptp.ref (tptp.ty) tptp.ty)
(declare-fun tptp.mk_ref (tptp.ty tptp.uni) tptp.uni)
(assert (forall ((A tptp.ty) (X tptp.uni)) (tptp.sort1 (tptp.ref A) (tptp.mk_ref A X))))
(declare-fun tptp.contents (tptp.ty tptp.uni) tptp.uni)
(assert (forall ((A tptp.ty) (X tptp.uni)) (tptp.sort1 A (tptp.contents A X))))
(assert (forall ((A tptp.ty) (U tptp.uni)) (=> (tptp.sort1 A U) (= (tptp.contents A (tptp.mk_ref A U)) U))))
(assert (forall ((A tptp.ty) (U tptp.uni)) (=> (tptp.sort1 (tptp.ref A) U) (= U (tptp.mk_ref A (tptp.contents A U))))))
(declare-fun tptp.map (tptp.ty tptp.ty) tptp.ty)
(declare-fun tptp.get (tptp.ty tptp.ty tptp.uni tptp.uni) tptp.uni)
(assert (forall ((A tptp.ty) (B tptp.ty) (X tptp.uni) (X1 tptp.uni)) (tptp.sort1 B (tptp.get B A X X1))))
(declare-fun tptp.set (tptp.ty tptp.ty tptp.uni tptp.uni tptp.uni) tptp.uni)
(assert (forall ((A tptp.ty) (B tptp.ty) (X tptp.uni) (X1 tptp.uni) (X2 tptp.uni)) (tptp.sort1 (tptp.map A B) (tptp.set B A X X1 X2))))
(assert (forall ((A tptp.ty) (B tptp.ty) (M tptp.uni) (A1 tptp.uni) (A2 tptp.uni) (B1 tptp.uni)) (=> (tptp.sort1 B B1) (=> (= A1 A2) (= (tptp.get B A (tptp.set B A M A1 B1) A2) B1)))))
(assert (forall ((A tptp.ty) (B tptp.ty) (M tptp.uni) (A1 tptp.uni) (A2 tptp.uni)) (=> (tptp.sort1 A A1) (=> (tptp.sort1 A A2) (forall ((B1 tptp.uni)) (=> (not (= A1 A2)) (= (tptp.get B A (tptp.set B A M A1 B1) A2) (tptp.get B A M A2))))))))
(declare-fun tptp.const (tptp.ty tptp.ty tptp.uni) tptp.uni)
(assert (forall ((A tptp.ty) (B tptp.ty) (X tptp.uni)) (tptp.sort1 (tptp.map A B) (tptp.const B A X))))
(assert (forall ((A tptp.ty) (B tptp.ty) (B1 tptp.uni) (A1 tptp.uni)) (=> (tptp.sort1 B B1) (= (tptp.get B A (tptp.const B A B1) A1) B1))))
(declare-fun tptp.array (tptp.ty) tptp.ty)
(declare-fun tptp.mk_array1 (tptp.ty Int tptp.uni) tptp.uni)
(assert (forall ((A tptp.ty) (X Int) (X1 tptp.uni)) (tptp.sort1 (tptp.array A) (tptp.mk_array1 A X X1))))
(declare-fun tptp.length1 (tptp.ty tptp.uni) Int)
(assert (forall ((A tptp.ty) (U Int) (U1 tptp.uni)) (= (tptp.length1 A (tptp.mk_array1 A U U1)) U)))
(declare-fun tptp.elts (tptp.ty tptp.uni) tptp.uni)
(assert (forall ((A tptp.ty) (X tptp.uni)) (tptp.sort1 (tptp.map tptp.int A) (tptp.elts A X))))
(assert (forall ((A tptp.ty) (U Int) (U1 tptp.uni)) (=> (tptp.sort1 (tptp.map tptp.int A) U1) (= (tptp.elts A (tptp.mk_array1 A U U1)) U1))))
(assert (forall ((A tptp.ty) (U tptp.uni)) (= U (tptp.mk_array1 A (tptp.length1 A U) (tptp.elts A U)))))
(declare-fun tptp.get2 (tptp.ty tptp.uni Int) tptp.uni)
(assert (forall ((A tptp.ty) (X tptp.uni) (X1 Int)) (tptp.sort1 A (tptp.get2 A X X1))))
(assert (forall ((A tptp.ty) (A1 tptp.uni) (I Int)) (= (tptp.get2 A A1 I) (tptp.get A tptp.int (tptp.elts A A1) (tptp.t2tb1 I)))))
(declare-fun tptp.set2 (tptp.ty tptp.uni Int tptp.uni) tptp.uni)
(assert (forall ((A tptp.ty) (X tptp.uni) (X1 Int) (X2 tptp.uni)) (tptp.sort1 (tptp.array A) (tptp.set2 A X X1 X2))))
(assert (forall ((A tptp.ty) (A1 tptp.uni) (I Int) (V tptp.uni)) (= (tptp.set2 A A1 I V) (tptp.mk_array1 A (tptp.length1 A A1) (tptp.set A tptp.int (tptp.elts A A1) (tptp.t2tb1 I) V)))))
(declare-fun tptp.make1 (tptp.ty Int tptp.uni) tptp.uni)
(assert (forall ((A tptp.ty) (X Int) (X1 tptp.uni)) (tptp.sort1 (tptp.array A) (tptp.make1 A X X1))))
(assert (forall ((A tptp.ty) (N Int) (V tptp.uni)) (= (tptp.make1 A N V) (tptp.mk_array1 A N (tptp.const A tptp.int V)))))
(declare-fun tptp.no_prime_in1 (Int Int) Bool)
(assert (forall ((L Int) (U Int)) (= (tptp.no_prime_in1 L U) (forall ((X Int)) (=> (and (< L X) (< X U)) (not (tptp.prime1 X)))))))
(declare-sort tptp.array_int 0)
(declare-fun tptp.first_primes1 (tptp.array_int Int) Bool)
(declare-fun tptp.t2tb2 (tptp.array_int) tptp.uni)
(assert (forall ((X tptp.array_int)) (tptp.sort1 (tptp.array tptp.int) (tptp.t2tb2 X))))
(declare-fun tptp.tb2t2 (tptp.uni) tptp.array_int)
(assert (forall ((I tptp.array_int)) (= (tptp.tb2t2 (tptp.t2tb2 I)) I)))
(assert (forall ((J tptp.uni)) (= (tptp.t2tb2 (tptp.tb2t2 J)) J)))
(assert (forall ((P tptp.array_int) (U Int)) (= (tptp.first_primes1 P U) (and (= (tptp.tb2t1 (tptp.get2 tptp.int (tptp.t2tb2 P) 0)) 2) (forall ((I Int) (J Int)) (let ((_let_1 (tptp.t2tb2 P))) (=> (and (<= 0 I) (< I J) (< J U)) (< (tptp.tb2t1 (tptp.get2 tptp.int _let_1 I)) (tptp.tb2t1 (tptp.get2 tptp.int _let_1 J)))))) (forall ((I Int)) (=> (and (<= 0 I) (< I U)) (tptp.prime1 (tptp.tb2t1 (tptp.get2 tptp.int (tptp.t2tb2 P) I))))) (forall ((I Int)) (let ((_let_1 (tptp.t2tb2 P))) (=> (and (<= 0 I) (< I (- U 1))) (tptp.no_prime_in1 (tptp.tb2t1 (tptp.get2 tptp.int _let_1 I)) (tptp.tb2t1 (tptp.get2 tptp.int _let_1 (+ I 1)))))))))))
(assert (forall ((P tptp.array_int) (U Int)) (=> (<= 1 U) (=> (tptp.first_primes1 P U) (forall ((D Int)) (=> (and (<= 2 D) (<= D (tptp.tb2t1 (tptp.get2 tptp.int (tptp.t2tb2 P) (- U 1))))) (=> (tptp.prime1 D) (exists ((I Int)) (and (<= 0 I) (< I U) (= D (tptp.tb2t1 (tptp.get2 tptp.int (tptp.t2tb2 P) I))))))))))))
(assert (forall ((P Int)) (=> (tptp.prime1 P) (not (tptp.no_prime_in1 P (* 2 P))))))
(declare-sort tptp.map_int_int 0)
(declare-fun tptp.t2tb3 (tptp.map_int_int) tptp.uni)
(assert (forall ((X tptp.map_int_int)) (tptp.sort1 (tptp.map tptp.int tptp.int) (tptp.t2tb3 X))))
(declare-fun tptp.tb2t3 (tptp.uni) tptp.map_int_int)
(assert (forall ((I tptp.map_int_int)) (= (tptp.tb2t3 (tptp.t2tb3 I)) I)))
(assert (forall ((J tptp.uni)) (= (tptp.t2tb3 (tptp.tb2t3 J)) J)))
(assert (not (forall ((M Int)) (let ((_let_1 (<= 0 M))) (=> (<= 2 M) (=> _let_1 (=> _let_1 (=> (and (<= 0 0) (< 0 M)) (forall ((P tptp.map_int_int)) (let ((_let_1 (tptp.t2tb1 0))) (=> (and (<= 0 M) (= P (tptp.tb2t3 (tptp.set tptp.int tptp.int (tptp.const tptp.int tptp.int _let_1) _let_1 (tptp.t2tb1 2))))) (=> (and (<= 0 1) (< 1 M)) (forall ((P1 tptp.map_int_int)) (=> (and (<= 0 M) (= P1 (tptp.tb2t3 (tptp.set tptp.int tptp.int (tptp.t2tb3 P) (tptp.t2tb1 1) (tptp.t2tb1 3))))) (=> (<= 2 (- M 1)) (forall ((N Int) (P2 tptp.map_int_int) (J Int)) (let ((_let_1 (tptp.t2tb3 P2))) (let ((_let_2 (tptp.tb2t1 (tptp.get tptp.int tptp.int _let_1 (tptp.t2tb1 (- J 1)))))) (let ((_let_3 (tptp.no_prime_in1 _let_2 N))) (let ((_let_4 (tptp.odd1 N))) (let ((_let_5 (< N (* 2 _let_2)))) (let ((_let_6 (< _let_2 N))) (let ((_let_7 (tptp.first_primes1 (tptp.tb2t2 (tptp.mk_array1 tptp.int M _let_1)) J))) (=> (and (<= 2 J) (<= J (- M 1))) (=> (and _let_7 _let_6 _let_5 _let_4 _let_3) (=> (and (<= 0 M) (<= 1 1) (< 1 J) _let_7 _let_6 _let_5 _let_4 _let_3 (forall ((I Int)) (=> (and (<= 0 I) (< I 1)) (not (tptp.divides1 (tptp.tb2t1 (tptp.get tptp.int tptp.int (tptp.t2tb3 P2) (tptp.t2tb1 I))) N))))) (forall ((N1 Int)) (let ((_let_1 (tptp.tb2t1 (tptp.get tptp.int tptp.int (tptp.t2tb3 P2) (tptp.t2tb1 (- J 1)))))) (=> (and (< _let_1 N1) (tptp.prime1 N1) (tptp.no_prime_in1 _let_1 N1)) (=> (and (<= 0 J) (< J M)) (forall ((P3 tptp.map_int_int)) (=> (and (<= 0 M) (= P3 (tptp.tb2t3 (tptp.set tptp.int tptp.int (tptp.t2tb3 P2) (tptp.t2tb1 J) (tptp.t2tb1 N1))))) (forall ((N2 Int)) (=> (= N2 (+ N1 2)) (tptp.no_prime_in1 (tptp.tb2t1 (tptp.get tptp.int tptp.int (tptp.t2tb3 P3) (tptp.t2tb1 (- (+ J 1) 1)))) N2)))))))))))))))))))))))))))))))))))
(check-sat)
(exit)
